p cnf 9 21
1 9 8 -2 0
1 -4 2 8 0
-4 3 -2 -8 0
-1 7 0
4 6 2 -1 -3 -7 -5 0
7 -5 0
-3 -8 -9 -4 0
-9 4 5 -6 8 7 -3 1 0
7 4 -3 -8 0
-9 -4 0
8 4 0
-5 -1 0
5 6 0
3 -5 4 0
-5 -9 -7 -8 0
6 4 9 8 -1 -3 5 0
3 6 2 5 -9 -1 0
-6 -1 8 9 7 -4 5 -3 0
-5 4 -6 -8 3 9 1 2 -7 0
2 6 7 -3 -5 1 4 -9 0
7 -4 -1 -3 0
